\ENCODING=ISO-8859-1
\Problem name: Facility

Minimize
 obj:
Subject To
 C_0:  y00 + y10 + y20  = 1
 W_00: - x0 + y00 <= 0
 W_01: - x1 + y10 <= 0
 W_02: - x2 + y20 <= 0
 C_1:  y01 + y11 + y21  = 1
 W_10: - x0 + y01 <= 0
 W_11: - x1 + y11 <= 0
 W_12: - x2 + y21 <= 0
 C_2:  y02 + y12 + y22  = 1
 W_20: - x0 + y02 <= 0
 W_21: - x1 + y12 <= 0
 W_22: - x2 + y22 <= 0
 C_3:  y03 + y13 + y23  = 1
 W_30: - x0 + y03 <= 0
 W_31: - x1 + y13 <= 0
 W_32: - x2 + y23 <= 0
Bounds
 0 <= x0 <= 1
 0 <= x1 <= 1
 0 <= x2 <= 1
 0 <= y00 <= 1
 0 <= y01 <= 1
 0 <= y02 <= 1
 0 <= y03 <= 1
 0 <= y10 <= 1
 0 <= y11 <= 1
 0 <= y12 <= 1
 0 <= y13 <= 1
 0 <= y20 <= 1
 0 <= y21 <= 1
 0 <= y22 <= 1
 0 <= y23 <= 1
Binaries
 x0  x1  x2  y00  y01  y02  y03  y10  y11  y12  y13  y20  y21  y22  y23 
End
